language ESSENCE' 1.0
letting lastdx=100
letting cage be [
[47,4,15,4,16,3,16,2,16,1,16],
[39,14,2,13,2,12,2,11,2,0,0],
[10,8,9,0,0, 0,0, 0,0, 0,0],
[3,13,6,0,0, 0,0, 0,0, 0,0],
[7,6,1,0,0, 0,0, 0,0, 0,0],
[37,7,12,8,12,9,12,10,12,11,12],
[22,11,14,10,14,10,15,0,0, 0,0],
[49,10,7,11,7,12,7,12,6,0,0],
[20,1,8,1,7,1,6,0,0, 0,0],
[22,11,9,10,9,9,9,0,0, 0,0],
[32,12,16,13,16,13,15,0,0, 0,0],
[45,5,6,6,6,7,6,8,6,9,6],
[11,7,14,7,13,8,13,0,0, 0,0],
[8,1,9,0,0, 0,0, 0,0, 0,0],
[2,2,5,0,0, 0,0, 0,0, 0,0],
[18,11,8,12,8,0,0, 0,0, 0,0],
[30,16,6,16,7,15,7,0,0, 0,0],
[7,9,16,0,0, 0,0, 0,0, 0,0],
[16,11,6,10,6,10,5,0,0, 0,0],
[15,5,3,0,0, 0,0, 0,0, 0,0],
[39,1,10,2,10,2,11,2,12,0,0],
[36,5,14,5,15,6,15,7,15,0,0],
[2,8,8,0,0, 0,0, 0,0, 0,0],
[26,4,4,4,5,3,5,0,0, 0,0],
[42,14,9,15,9,15,8,0,0, 0,0],
[15,4,12,0,0, 0,0, 0,0, 0,0],
[49,12,3,13,3,14,3,14,4,13,4],
[12,14,10,0,0, 0,0, 0,0, 0,0],
[39,16,14,16,15,16,16,15,16,0,0],
[9,2,1,0,0, 0,0, 0,0, 0,0],
[15,11,15,12,15,12,14,0,0, 0,0],
[26,4,2,3,2,0,0, 0,0, 0,0],
[3,8,3,0,0, 0,0, 0,0, 0,0],
[50,9,15,9,14,9,13,10,13,0,0],
[21,10,1,9,1,8,1,0,0, 0,0],
[16,9,4,0,0, 0,0, 0,0, 0,0],
[7,13,7,0,0, 0,0, 0,0, 0,0],
[13,8,4,0,0, 0,0, 0,0, 0,0],
[8,15,11,0,0, 0,0, 0,0, 0,0],
[2,10,4,0,0, 0,0, 0,0, 0,0],
[3,11,5,0,0, 0,0, 0,0, 0,0],
[14,4,9,0,0, 0,0, 0,0, 0,0],
[7,11,16,10,16,0,0, 0,0, 0,0],
[5,15,1,0,0, 0,0, 0,0, 0,0],
[43,1,11,1,12,1,13,2,13,2,14],
[38,13,1,14,1,12,1,11,1,0,0],
[36,4,1,3,1,5,1,5,2,0,0],
[49,7,11,8,11,8,10,7,10,0,0],
[25,6,12,6,11,5,11,0,0, 0,0],
[23,9,11,9,10,10,10,0,0, 0,0],
[19,12,13,11,13,0,0, 0,0, 0,0],
[14,15,14,0,0, 0,0, 0,0, 0,0],
[14,3,11,3,12,3,13,0,0, 0,0],
[18,4,10,4,11,0,0, 0,0, 0,0],
[16,7,3,0,0, 0,0, 0,0, 0,0],
[2,6,3,0,0, 0,0, 0,0, 0,0],
[22,1,4,1,5,0,0, 0,0, 0,0],
[10,14,5,13,5,0,0, 0,0, 0,0],
[16,3,15,0,0, 0,0, 0,0, 0,0],
[25,7,8,7,9,6,9,6,8,0,0],
[6,14,12,0,0, 0,0, 0,0, 0,0],
[22,16,2,16,1,0,0, 0,0, 0,0],
[15,12,4,12,5,0,0, 0,0, 0,0],
[31,7,2,6,2,7,1,0,0, 0,0],
[8,14,13,0,0, 0,0, 0,0, 0,0],
[30,11,11,10,11,0,0, 0,0, 0,0],
[32,14,14,14,15,14,16,15,15,0,0],
[15,11,10,0,0, 0,0, 0,0, 0,0],
[15,16,8,16,9,0,0, 0,0, 0,0],
[34,13,14,13,13,13,12,12,12,0,0],
[7,3,6,0,0, 0,0, 0,0, 0,0],
[18,1,3,2,3,0,0, 0,0, 0,0],
[3,1,14,0,0, 0,0, 0,0, 0,0],
[35,14,6,15,6,15,5,15,4,0,0],
[11,4,13,4,14,3,14,0,0, 0,0],
[16,4,7,4,6,0,0, 0,0, 0,0],
[12,15,10,16,10,16,11,0,0, 0,0],
[43,6,13,6,14,5,13,5,12,0,0],
[43,2,6,2,7,3,7,3,8,0,0],
[20,1,1,1,2,2,2,0,0, 0,0],
[23,1,15,2,15,0,0, 0,0, 0,0],
[3,2,4,0,0, 0,0, 0,0, 0,0],
[25,2,8,2,9,3,9,3,10,0,0],
[33,3,3,3,4,4,3,0,0, 0,0],
[1,5,4,0,0, 0,0, 0,0, 0,0],
[21,5,5,6,5,0,0, 0,0, 0,0],
[25,5,7,6,7,0,0, 0,0, 0,0],
[6,5,16,0,0, 0,0, 0,0, 0,0],
[19,6,4,7,4,0,0, 0,0, 0,0],
[23,6,16,7,16,0,0, 0,0, 0,0],
[5,7,5,0,0, 0,0, 0,0, 0,0],
[16,8,2,9,2,9,3,0,0, 0,0],
[26,8,5,9,5,0,0, 0,0, 0,0],
[7,8,14,0,0, 0,0, 0,0, 0,0],
[12,8,15,8,16,0,0, 0,0, 0,0],
[29,10,2,10,3,11,3,11,4,0,0],
[11,12,9,12,10,12,11,0,0, 0,0],
[25,13,8,14,8,14,7,0,0, 0,0],
[16,13,9,0,0, 0,0, 0,0, 0,0],
[22,13,10,13,11,14,11,0,0, 0,0],
[36,15,2,15,3,16,3,16,4,16,5]
]
